Route #1: 14 19 2 15 11 18 35
Route #2: 5 3 4 9 7 8 10 6 71 12 17 16 13 1 33
Route #3: 23 24 26 25 49 51 70 50 47 48 52 45 53 46 44 43 42 27 28 22 21 30 29 20
Route #4: 32 31 34 54 55 41 56 57 39 68 40 38 37 69 67 66 65 62 64 63 59 58 61 60 36
Cost 240
Time 0.091782
